; benchmark generated from python API
(set-info :status unknown)
(declare-fun cell_1_8 () Int)
(declare-fun cell_2_1 () Int)
(declare-fun cell_3_5 () Int)
(declare-fun cell_4_4 () Int)
(declare-fun cell_5_3 () Int)
(declare-fun cell_6_9 () Int)
(declare-fun cell_7_7 () Int)
(declare-fun cell_8_2 () Int)
(declare-fun cell_1_1 () Int)
(declare-fun cell_3_1 () Int)
(declare-fun cell_4_1 () Int)
(declare-fun cell_5_1 () Int)
(declare-fun cell_6_1 () Int)
(declare-fun cell_7_1 () Int)
(declare-fun cell_8_1 () Int)
(declare-fun cell_9_1 () Int)
(declare-fun cell_1_2 () Int)
(declare-fun cell_2_2 () Int)
(declare-fun cell_3_2 () Int)
(declare-fun cell_4_2 () Int)
(declare-fun cell_5_2 () Int)
(declare-fun cell_6_2 () Int)
(declare-fun cell_7_2 () Int)
(declare-fun cell_9_2 () Int)
(declare-fun cell_1_3 () Int)
(declare-fun cell_2_3 () Int)
(declare-fun cell_3_3 () Int)
(declare-fun cell_4_3 () Int)
(declare-fun cell_6_3 () Int)
(declare-fun cell_7_3 () Int)
(declare-fun cell_8_3 () Int)
(declare-fun cell_9_3 () Int)
(declare-fun cell_1_4 () Int)
(declare-fun cell_2_4 () Int)
(declare-fun cell_3_4 () Int)
(declare-fun cell_5_4 () Int)
(declare-fun cell_6_4 () Int)
(declare-fun cell_7_4 () Int)
(declare-fun cell_8_4 () Int)
(declare-fun cell_9_4 () Int)
(declare-fun cell_1_5 () Int)
(declare-fun cell_2_5 () Int)
(declare-fun cell_4_5 () Int)
(declare-fun cell_5_5 () Int)
(declare-fun cell_6_5 () Int)
(declare-fun cell_7_5 () Int)
(declare-fun cell_8_5 () Int)
(declare-fun cell_9_5 () Int)
(declare-fun cell_1_6 () Int)
(declare-fun cell_2_6 () Int)
(declare-fun cell_3_6 () Int)
(declare-fun cell_4_6 () Int)
(declare-fun cell_5_6 () Int)
(declare-fun cell_6_6 () Int)
(declare-fun cell_7_6 () Int)
(declare-fun cell_8_6 () Int)
(declare-fun cell_9_6 () Int)
(declare-fun cell_1_7 () Int)
(declare-fun cell_2_7 () Int)
(declare-fun cell_3_7 () Int)
(declare-fun cell_4_7 () Int)
(declare-fun cell_5_7 () Int)
(declare-fun cell_6_7 () Int)
(declare-fun cell_8_7 () Int)
(declare-fun cell_9_7 () Int)
(declare-fun cell_2_8 () Int)
(declare-fun cell_3_8 () Int)
(declare-fun cell_4_8 () Int)
(declare-fun cell_5_8 () Int)
(declare-fun cell_6_8 () Int)
(declare-fun cell_7_8 () Int)
(declare-fun cell_8_8 () Int)
(declare-fun cell_9_8 () Int)
(declare-fun cell_1_9 () Int)
(declare-fun cell_2_9 () Int)
(declare-fun cell_3_9 () Int)
(declare-fun cell_4_9 () Int)
(declare-fun cell_5_9 () Int)
(declare-fun cell_7_9 () Int)
(declare-fun cell_8_9 () Int)
(declare-fun cell_9_9 () Int)
(assert
 (= cell_1_8 1))
(assert
 (= cell_2_1 1))
(assert
 (= cell_3_5 1))
(assert
 (= cell_4_4 1))
(assert
 (= cell_5_3 1))
(assert
 (= cell_6_9 1))
(assert
 (= cell_7_7 1))
(assert
 (= cell_8_2 1))
(assert
 (let (($x8807 (= cell_1_1 9)))
 (let (($x4615 (= cell_1_1 8)))
 (let (($x2214 (= cell_1_1 7)))
 (let (($x9936 (= cell_1_1 6)))
 (let (($x5800 (= cell_1_1 5)))
 (let (($x654 (= cell_1_1 4)))
 (let (($x8480 (= cell_1_1 3)))
 (let (($x9565 (= cell_1_1 2)))
 (let (($x8648 (= cell_1_1 1)))
 (or $x8648 $x9565 $x8480 $x654 $x5800 $x9936 $x2214 $x4615 $x8807)))))))))))
(assert
 (let (($x875 (= cell_2_1 1)))
 (or $x875 (= cell_2_1 2) (= cell_2_1 3) (= cell_2_1 4) (= cell_2_1 5) (= cell_2_1 6) (= cell_2_1 7) (= cell_2_1 8) (= cell_2_1 9))))
(assert
 (let (($x1673 (= cell_3_1 9)))
 (let (($x2874 (= cell_3_1 8)))
 (let (($x966 (= cell_3_1 7)))
 (let (($x1047 (= cell_3_1 6)))
 (let (($x5633 (= cell_3_1 5)))
 (let (($x3959 (= cell_3_1 4)))
 (let (($x10057 (= cell_3_1 3)))
 (let (($x3355 (= cell_3_1 2)))
 (let (($x7804 (= cell_3_1 1)))
 (or $x7804 $x3355 $x10057 $x3959 $x5633 $x1047 $x966 $x2874 $x1673)))))))))))
(assert
 (let (($x10173 (= cell_4_1 9)))
 (let (($x3359 (= cell_4_1 8)))
 (let (($x2228 (= cell_4_1 7)))
 (let (($x8884 (= cell_4_1 6)))
 (let (($x8768 (= cell_4_1 5)))
 (let (($x6700 (= cell_4_1 4)))
 (let (($x6130 (= cell_4_1 3)))
 (let (($x3594 (= cell_4_1 2)))
 (let (($x1705 (= cell_4_1 1)))
 (or $x1705 $x3594 $x6130 $x6700 $x8768 $x8884 $x2228 $x3359 $x10173)))))))))))
(assert
 (let (($x9614 (= cell_5_1 9)))
 (let (($x170 (= cell_5_1 8)))
 (let (($x8921 (= cell_5_1 7)))
 (let (($x3354 (= cell_5_1 6)))
 (let (($x9416 (= cell_5_1 5)))
 (let (($x2012 (= cell_5_1 4)))
 (let (($x9941 (= cell_5_1 3)))
 (let (($x9851 (= cell_5_1 2)))
 (let (($x6049 (= cell_5_1 1)))
 (or $x6049 $x9851 $x9941 $x2012 $x9416 $x3354 $x8921 $x170 $x9614)))))))))))
(assert
 (let (($x7349 (= cell_6_1 9)))
 (let (($x8643 (= cell_6_1 8)))
 (let (($x4152 (= cell_6_1 7)))
 (let (($x799 (= cell_6_1 6)))
 (let (($x3986 (= cell_6_1 5)))
 (let (($x6368 (= cell_6_1 4)))
 (let (($x9357 (= cell_6_1 3)))
 (let (($x3482 (= cell_6_1 2)))
 (let (($x8002 (= cell_6_1 1)))
 (or $x8002 $x3482 $x9357 $x6368 $x3986 $x799 $x4152 $x8643 $x7349)))))))))))
(assert
 (let (($x5097 (= cell_7_1 9)))
 (let (($x7413 (= cell_7_1 8)))
 (let (($x1268 (= cell_7_1 7)))
 (let (($x8271 (= cell_7_1 6)))
 (let (($x1384 (= cell_7_1 5)))
 (let (($x10106 (= cell_7_1 4)))
 (let (($x7519 (= cell_7_1 3)))
 (let (($x8280 (= cell_7_1 2)))
 (let (($x3389 (= cell_7_1 1)))
 (or $x3389 $x8280 $x7519 $x10106 $x1384 $x8271 $x1268 $x7413 $x5097)))))))))))
(assert
 (let (($x2569 (= cell_8_1 9)))
 (let (($x3089 (= cell_8_1 8)))
 (let (($x7907 (= cell_8_1 7)))
 (let (($x4612 (= cell_8_1 6)))
 (let (($x9911 (= cell_8_1 5)))
 (let (($x2056 (= cell_8_1 4)))
 (let (($x4431 (= cell_8_1 3)))
 (let (($x1172 (= cell_8_1 2)))
 (let (($x1925 (= cell_8_1 1)))
 (or $x1925 $x1172 $x4431 $x2056 $x9911 $x4612 $x7907 $x3089 $x2569)))))))))))
(assert
 (let (($x429 (= cell_9_1 1)))
 (or $x429 (= cell_9_1 2) (= cell_9_1 3) (= cell_9_1 4) (= cell_9_1 5) (= cell_9_1 6) (= cell_9_1 7) (= cell_9_1 8) (= cell_9_1 9))))
(assert
 (let (($x6818 (= cell_1_2 9)))
 (let (($x289 (= cell_1_2 8)))
 (let (($x2994 (= cell_1_2 7)))
 (let (($x59 (= cell_1_2 6)))
 (let (($x9962 (= cell_1_2 5)))
 (let (($x8290 (= cell_1_2 4)))
 (let (($x1033 (= cell_1_2 3)))
 (let (($x3510 (= cell_1_2 2)))
 (let (($x2138 (= cell_1_2 1)))
 (or $x2138 $x3510 $x1033 $x8290 $x9962 $x59 $x2994 $x289 $x6818)))))))))))
(assert
 (let (($x1191 (= cell_2_2 9)))
 (let (($x1282 (= cell_2_2 8)))
 (let (($x1346 (= cell_2_2 7)))
 (let (($x7743 (= cell_2_2 6)))
 (let (($x152 (= cell_2_2 5)))
 (let (($x2511 (= cell_2_2 4)))
 (let (($x10204 (= cell_2_2 3)))
 (let (($x8715 (= cell_2_2 2)))
 (let (($x7419 (= cell_2_2 1)))
 (or $x7419 $x8715 $x10204 $x2511 $x152 $x7743 $x1346 $x1282 $x1191)))))))))))
(assert
 (let (($x5250 (= cell_3_2 9)))
 (let (($x6865 (= cell_3_2 8)))
 (let (($x5651 (= cell_3_2 7)))
 (let (($x3852 (= cell_3_2 6)))
 (let (($x3727 (= cell_3_2 5)))
 (let (($x5500 (= cell_3_2 4)))
 (let (($x3232 (= cell_3_2 3)))
 (let (($x7637 (= cell_3_2 2)))
 (let (($x7432 (= cell_3_2 1)))
 (or $x7432 $x7637 $x3232 $x5500 $x3727 $x3852 $x5651 $x6865 $x5250)))))))))))
(assert
 (let (($x3409 (= cell_4_2 9)))
 (let (($x273 (= cell_4_2 8)))
 (let (($x1069 (= cell_4_2 7)))
 (let (($x3916 (= cell_4_2 6)))
 (let (($x8431 (= cell_4_2 5)))
 (let (($x8021 (= cell_4_2 4)))
 (let (($x2181 (= cell_4_2 3)))
 (let (($x5768 (= cell_4_2 2)))
 (let (($x8139 (= cell_4_2 1)))
 (or $x8139 $x5768 $x2181 $x8021 $x8431 $x3916 $x1069 $x273 $x3409)))))))))))
(assert
 (let (($x7284 (= cell_5_2 9)))
 (let (($x8495 (= cell_5_2 8)))
 (let (($x8221 (= cell_5_2 7)))
 (let (($x498 (= cell_5_2 6)))
 (let (($x6540 (= cell_5_2 5)))
 (let (($x5898 (= cell_5_2 4)))
 (let (($x8010 (= cell_5_2 3)))
 (let (($x9379 (= cell_5_2 2)))
 (let (($x3938 (= cell_5_2 1)))
 (or $x3938 $x9379 $x8010 $x5898 $x6540 $x498 $x8221 $x8495 $x7284)))))))))))
(assert
 (let (($x5200 (= cell_6_2 9)))
 (let (($x274 (= cell_6_2 8)))
 (let (($x1348 (= cell_6_2 7)))
 (let (($x4888 (= cell_6_2 6)))
 (let (($x591 (= cell_6_2 5)))
 (let (($x1023 (= cell_6_2 4)))
 (let (($x10337 (= cell_6_2 3)))
 (let (($x5227 (= cell_6_2 2)))
 (let (($x2798 (= cell_6_2 1)))
 (or $x2798 $x5227 $x10337 $x1023 $x591 $x4888 $x1348 $x274 $x5200)))))))))))
(assert
 (let (($x2212 (= cell_7_2 9)))
 (let (($x6016 (= cell_7_2 8)))
 (let (($x7404 (= cell_7_2 7)))
 (let (($x6631 (= cell_7_2 6)))
 (let (($x7166 (= cell_7_2 5)))
 (let (($x4425 (= cell_7_2 4)))
 (let (($x1132 (= cell_7_2 3)))
 (let (($x3087 (= cell_7_2 2)))
 (let (($x6433 (= cell_7_2 1)))
 (or $x6433 $x3087 $x1132 $x4425 $x7166 $x6631 $x7404 $x6016 $x2212)))))))))))
(assert
 (let (($x4117 (= cell_8_2 1)))
 (or $x4117 (= cell_8_2 2) (= cell_8_2 3) (= cell_8_2 4) (= cell_8_2 5) (= cell_8_2 6) (= cell_8_2 7) (= cell_8_2 8) (= cell_8_2 9))))
(assert
 (let (($x2048 (= cell_9_2 1)))
 (or $x2048 (= cell_9_2 2) (= cell_9_2 3) (= cell_9_2 4) (= cell_9_2 5) (= cell_9_2 6) (= cell_9_2 7) (= cell_9_2 8) (= cell_9_2 9))))
(assert
 (let (($x9985 (= cell_1_3 9)))
 (let (($x6833 (= cell_1_3 8)))
 (let (($x5979 (= cell_1_3 7)))
 (let (($x3056 (= cell_1_3 6)))
 (let (($x8497 (= cell_1_3 5)))
 (let (($x7566 (= cell_1_3 4)))
 (let (($x8106 (= cell_1_3 3)))
 (let (($x6587 (= cell_1_3 2)))
 (let (($x2438 (= cell_1_3 1)))
 (or $x2438 $x6587 $x8106 $x7566 $x8497 $x3056 $x5979 $x6833 $x9985)))))))))))
(assert
 (let (($x467 (= cell_2_3 9)))
 (let (($x8590 (= cell_2_3 8)))
 (let (($x9947 (= cell_2_3 7)))
 (let (($x1030 (= cell_2_3 6)))
 (let (($x7591 (= cell_2_3 5)))
 (let (($x9612 (= cell_2_3 4)))
 (let (($x7787 (= cell_2_3 3)))
 (let (($x9332 (= cell_2_3 2)))
 (let (($x1822 (= cell_2_3 1)))
 (or $x1822 $x9332 $x7787 $x9612 $x7591 $x1030 $x9947 $x8590 $x467)))))))))))
(assert
 (let (($x856 (= cell_3_3 9)))
 (let (($x1696 (= cell_3_3 8)))
 (let (($x437 (= cell_3_3 7)))
 (let (($x6231 (= cell_3_3 6)))
 (let (($x9308 (= cell_3_3 5)))
 (let (($x7346 (= cell_3_3 4)))
 (let (($x1099 (= cell_3_3 3)))
 (let (($x7537 (= cell_3_3 2)))
 (let (($x4139 (= cell_3_3 1)))
 (or $x4139 $x7537 $x1099 $x7346 $x9308 $x6231 $x437 $x1696 $x856)))))))))))
(assert
 (let (($x91 (= cell_4_3 9)))
 (let (($x3885 (= cell_4_3 8)))
 (let (($x9926 (= cell_4_3 7)))
 (let (($x4650 (= cell_4_3 6)))
 (let (($x6289 (= cell_4_3 5)))
 (let (($x2099 (= cell_4_3 4)))
 (let (($x6031 (= cell_4_3 3)))
 (let (($x1549 (= cell_4_3 2)))
 (let (($x2947 (= cell_4_3 1)))
 (or $x2947 $x1549 $x6031 $x2099 $x6289 $x4650 $x9926 $x3885 $x91)))))))))))
(assert
 (let (($x2359 (= cell_5_3 1)))
 (or $x2359 (= cell_5_3 2) (= cell_5_3 3) (= cell_5_3 4) (= cell_5_3 5) (= cell_5_3 6) (= cell_5_3 7) (= cell_5_3 8) (= cell_5_3 9))))
(assert
 (let (($x402 (= cell_6_3 9)))
 (let (($x614 (= cell_6_3 8)))
 (let (($x7645 (= cell_6_3 7)))
 (let (($x5024 (= cell_6_3 6)))
 (let (($x6941 (= cell_6_3 5)))
 (let (($x540 (= cell_6_3 4)))
 (let (($x7 (= cell_6_3 3)))
 (let (($x9420 (= cell_6_3 2)))
 (let (($x8211 (= cell_6_3 1)))
 (or $x8211 $x9420 $x7 $x540 $x6941 $x5024 $x7645 $x614 $x402)))))))))))
(assert
 (let (($x9207 (= cell_7_3 9)))
 (let (($x444 (= cell_7_3 8)))
 (let (($x1159 (= cell_7_3 7)))
 (let (($x959 (= cell_7_3 6)))
 (let (($x3447 (= cell_7_3 5)))
 (let (($x6554 (= cell_7_3 4)))
 (let (($x6436 (= cell_7_3 3)))
 (let (($x5983 (= cell_7_3 2)))
 (let (($x8530 (= cell_7_3 1)))
 (or $x8530 $x5983 $x6436 $x6554 $x3447 $x959 $x1159 $x444 $x9207)))))))))))
(assert
 (let (($x8752 (= cell_8_3 1)))
 (or $x8752 (= cell_8_3 2) (= cell_8_3 3) (= cell_8_3 4) (= cell_8_3 5) (= cell_8_3 6) (= cell_8_3 7) (= cell_8_3 8) (= cell_8_3 9))))
(assert
 (let (($x3805 (= cell_9_3 1)))
 (or $x3805 (= cell_9_3 2) (= cell_9_3 3) (= cell_9_3 4) (= cell_9_3 5) (= cell_9_3 6) (= cell_9_3 7) (= cell_9_3 8) (= cell_9_3 9))))
(assert
 (let (($x7555 (= cell_1_4 9)))
 (let (($x8835 (= cell_1_4 8)))
 (let (($x915 (= cell_1_4 7)))
 (let (($x6873 (= cell_1_4 6)))
 (let (($x978 (= cell_1_4 5)))
 (let (($x5000 (= cell_1_4 4)))
 (let (($x1322 (= cell_1_4 3)))
 (let (($x8026 (= cell_1_4 2)))
 (let (($x6901 (= cell_1_4 1)))
 (or $x6901 $x8026 $x1322 $x5000 $x978 $x6873 $x915 $x8835 $x7555)))))))))))
(assert
 (let (($x8730 (= cell_2_4 9)))
 (let (($x894 (= cell_2_4 8)))
 (let (($x7960 (= cell_2_4 7)))
 (let (($x1194 (= cell_2_4 6)))
 (let (($x4072 (= cell_2_4 5)))
 (let (($x1520 (= cell_2_4 4)))
 (let (($x4525 (= cell_2_4 3)))
 (let (($x2044 (= cell_2_4 2)))
 (let (($x4572 (= cell_2_4 1)))
 (or $x4572 $x2044 $x4525 $x1520 $x4072 $x1194 $x7960 $x894 $x8730)))))))))))
(assert
 (let (($x3715 (= cell_3_4 9)))
 (let (($x10209 (= cell_3_4 8)))
 (let (($x4972 (= cell_3_4 7)))
 (let (($x360 (= cell_3_4 6)))
 (let (($x1793 (= cell_3_4 5)))
 (let (($x6248 (= cell_3_4 4)))
 (let (($x738 (= cell_3_4 3)))
 (let (($x833 (= cell_3_4 2)))
 (let (($x5498 (= cell_3_4 1)))
 (or $x5498 $x833 $x738 $x6248 $x1793 $x360 $x4972 $x10209 $x3715)))))))))))
(assert
 (let (($x2261 (= cell_4_4 1)))
 (or $x2261 (= cell_4_4 2) (= cell_4_4 3) (= cell_4_4 4) (= cell_4_4 5) (= cell_4_4 6) (= cell_4_4 7) (= cell_4_4 8) (= cell_4_4 9))))
(assert
 (let (($x8273 (= cell_5_4 1)))
 (or $x8273 (= cell_5_4 2) (= cell_5_4 3) (= cell_5_4 4) (= cell_5_4 5) (= cell_5_4 6) (= cell_5_4 7) (= cell_5_4 8) (= cell_5_4 9))))
(assert
 (let (($x6552 (= cell_6_4 9)))
 (let (($x2864 (= cell_6_4 8)))
 (let (($x1712 (= cell_6_4 7)))
 (let (($x8822 (= cell_6_4 6)))
 (let (($x4251 (= cell_6_4 5)))
 (let (($x2351 (= cell_6_4 4)))
 (let (($x6167 (= cell_6_4 3)))
 (let (($x617 (= cell_6_4 2)))
 (let (($x5474 (= cell_6_4 1)))
 (or $x5474 $x617 $x6167 $x2351 $x4251 $x8822 $x1712 $x2864 $x6552)))))))))))
(assert
 (let (($x3059 (= cell_7_4 9)))
 (let (($x9760 (= cell_7_4 8)))
 (let (($x5658 (= cell_7_4 7)))
 (let (($x9551 (= cell_7_4 6)))
 (let (($x10002 (= cell_7_4 5)))
 (let (($x5541 (= cell_7_4 4)))
 (let (($x9210 (= cell_7_4 3)))
 (let (($x5829 (= cell_7_4 2)))
 (let (($x3799 (= cell_7_4 1)))
 (or $x3799 $x5829 $x9210 $x5541 $x10002 $x9551 $x5658 $x9760 $x3059)))))))))))
(assert
 (let (($x3831 (= cell_8_4 1)))
 (or $x3831 (= cell_8_4 2) (= cell_8_4 3) (= cell_8_4 4) (= cell_8_4 5) (= cell_8_4 6) (= cell_8_4 7) (= cell_8_4 8) (= cell_8_4 9))))
(assert
 (let (($x121 (= cell_9_4 1)))
 (or $x121 (= cell_9_4 2) (= cell_9_4 3) (= cell_9_4 4) (= cell_9_4 5) (= cell_9_4 6) (= cell_9_4 7) (= cell_9_4 8) (= cell_9_4 9))))
(assert
 (let (($x7885 (= cell_1_5 9)))
 (let (($x9611 (= cell_1_5 8)))
 (let (($x5522 (= cell_1_5 7)))
 (let (($x4436 (= cell_1_5 6)))
 (let (($x4413 (= cell_1_5 5)))
 (let (($x3456 (= cell_1_5 4)))
 (let (($x2946 (= cell_1_5 3)))
 (let (($x1935 (= cell_1_5 2)))
 (let (($x6937 (= cell_1_5 1)))
 (or $x6937 $x1935 $x2946 $x3456 $x4413 $x4436 $x5522 $x9611 $x7885)))))))))))
(assert
 (let (($x4292 (= cell_2_5 9)))
 (let (($x295 (= cell_2_5 8)))
 (let (($x2564 (= cell_2_5 7)))
 (let (($x2664 (= cell_2_5 6)))
 (let (($x8814 (= cell_2_5 5)))
 (let (($x2673 (= cell_2_5 4)))
 (let (($x3487 (= cell_2_5 3)))
 (let (($x5997 (= cell_2_5 2)))
 (let (($x870 (= cell_2_5 1)))
 (or $x870 $x5997 $x3487 $x2673 $x8814 $x2664 $x2564 $x295 $x4292)))))))))))
(assert
 (let (($x7145 (= cell_3_5 1)))
 (or $x7145 (= cell_3_5 2) (= cell_3_5 3) (= cell_3_5 4) (= cell_3_5 5) (= cell_3_5 6) (= cell_3_5 7) (= cell_3_5 8) (= cell_3_5 9))))
(assert
 (let (($x8067 (= cell_4_5 1)))
 (or $x8067 (= cell_4_5 2) (= cell_4_5 3) (= cell_4_5 4) (= cell_4_5 5) (= cell_4_5 6) (= cell_4_5 7) (= cell_4_5 8) (= cell_4_5 9))))
(assert
 (let (($x4284 (= cell_5_5 1)))
 (or $x4284 (= cell_5_5 2) (= cell_5_5 3) (= cell_5_5 4) (= cell_5_5 5) (= cell_5_5 6) (= cell_5_5 7) (= cell_5_5 8) (= cell_5_5 9))))
(assert
 (let (($x7475 (= cell_6_5 9)))
 (let (($x9658 (= cell_6_5 8)))
 (let (($x4175 (= cell_6_5 7)))
 (let (($x7269 (= cell_6_5 6)))
 (let (($x3187 (= cell_6_5 5)))
 (let (($x851 (= cell_6_5 4)))
 (let (($x3097 (= cell_6_5 3)))
 (let (($x694 (= cell_6_5 2)))
 (let (($x7992 (= cell_6_5 1)))
 (or $x7992 $x694 $x3097 $x851 $x3187 $x7269 $x4175 $x9658 $x7475)))))))))))
(assert
 (let (($x4427 (= cell_7_5 9)))
 (let (($x7271 (= cell_7_5 8)))
 (let (($x2144 (= cell_7_5 7)))
 (let (($x8129 (= cell_7_5 6)))
 (let (($x8953 (= cell_7_5 5)))
 (let (($x9049 (= cell_7_5 4)))
 (let (($x1496 (= cell_7_5 3)))
 (let (($x7505 (= cell_7_5 2)))
 (let (($x7362 (= cell_7_5 1)))
 (or $x7362 $x7505 $x1496 $x9049 $x8953 $x8129 $x2144 $x7271 $x4427)))))))))))
(assert
 (let (($x1765 (= cell_8_5 1)))
 (or $x1765 (= cell_8_5 2) (= cell_8_5 3) (= cell_8_5 4) (= cell_8_5 5) (= cell_8_5 6) (= cell_8_5 7) (= cell_8_5 8) (= cell_8_5 9))))
(assert
 (let (($x7275 (= cell_9_5 1)))
 (or $x7275 (= cell_9_5 2) (= cell_9_5 3) (= cell_9_5 4) (= cell_9_5 5) (= cell_9_5 6) (= cell_9_5 7) (= cell_9_5 8) (= cell_9_5 9))))
(assert
 (let (($x6116 (= cell_1_6 9)))
 (let (($x5644 (= cell_1_6 8)))
 (let (($x4052 (= cell_1_6 7)))
 (let (($x8690 (= cell_1_6 6)))
 (let (($x6487 (= cell_1_6 5)))
 (let (($x6647 (= cell_1_6 4)))
 (let (($x8096 (= cell_1_6 3)))
 (let (($x6187 (= cell_1_6 2)))
 (let (($x1978 (= cell_1_6 1)))
 (or $x1978 $x6187 $x8096 $x6647 $x6487 $x8690 $x4052 $x5644 $x6116)))))))))))
(assert
 (let (($x9415 (= cell_2_6 9)))
 (let (($x6446 (= cell_2_6 8)))
 (let (($x1518 (= cell_2_6 7)))
 (let (($x3411 (= cell_2_6 6)))
 (let (($x9079 (= cell_2_6 5)))
 (let (($x9387 (= cell_2_6 4)))
 (let (($x1659 (= cell_2_6 3)))
 (let (($x1109 (= cell_2_6 2)))
 (let (($x2272 (= cell_2_6 1)))
 (or $x2272 $x1109 $x1659 $x9387 $x9079 $x3411 $x1518 $x6446 $x9415)))))))))))
(assert
 (let (($x6607 (= cell_3_6 1)))
 (or $x6607 (= cell_3_6 2) (= cell_3_6 3) (= cell_3_6 4) (= cell_3_6 5) (= cell_3_6 6) (= cell_3_6 7) (= cell_3_6 8) (= cell_3_6 9))))
(assert
 (let (($x9929 (= cell_4_6 1)))
 (or $x9929 (= cell_4_6 2) (= cell_4_6 3) (= cell_4_6 4) (= cell_4_6 5) (= cell_4_6 6) (= cell_4_6 7) (= cell_4_6 8) (= cell_4_6 9))))
(assert
 (let (($x6438 (= cell_5_6 1)))
 (or $x6438 (= cell_5_6 2) (= cell_5_6 3) (= cell_5_6 4) (= cell_5_6 5) (= cell_5_6 6) (= cell_5_6 7) (= cell_5_6 8) (= cell_5_6 9))))
(assert
 (let (($x9530 (= cell_6_6 9)))
 (let (($x39 (= cell_6_6 8)))
 (let (($x4347 (= cell_6_6 7)))
 (let (($x1874 (= cell_6_6 6)))
 (let (($x8905 (= cell_6_6 5)))
 (let (($x4789 (= cell_6_6 4)))
 (let (($x6975 (= cell_6_6 3)))
 (let (($x3390 (= cell_6_6 2)))
 (let (($x9410 (= cell_6_6 1)))
 (or $x9410 $x3390 $x6975 $x4789 $x8905 $x1874 $x4347 $x39 $x9530)))))))))))
(assert
 (let (($x4887 (= cell_7_6 9)))
 (let (($x9102 (= cell_7_6 8)))
 (let (($x1910 (= cell_7_6 7)))
 (let (($x3172 (= cell_7_6 6)))
 (let (($x7238 (= cell_7_6 5)))
 (let (($x4183 (= cell_7_6 4)))
 (let (($x3452 (= cell_7_6 3)))
 (let (($x7210 (= cell_7_6 2)))
 (let (($x9571 (= cell_7_6 1)))
 (or $x9571 $x7210 $x3452 $x4183 $x7238 $x3172 $x1910 $x9102 $x4887)))))))))))
(assert
 (let (($x1036 (= cell_8_6 1)))
 (or $x1036 (= cell_8_6 2) (= cell_8_6 3) (= cell_8_6 4) (= cell_8_6 5) (= cell_8_6 6) (= cell_8_6 7) (= cell_8_6 8) (= cell_8_6 9))))
(assert
 (let (($x2990 (= cell_9_6 1)))
 (or $x2990 (= cell_9_6 2) (= cell_9_6 3) (= cell_9_6 4) (= cell_9_6 5) (= cell_9_6 6) (= cell_9_6 7) (= cell_9_6 8) (= cell_9_6 9))))
(assert
 (let (($x5206 (= cell_1_7 9)))
 (let (($x6762 (= cell_1_7 8)))
 (let (($x8469 (= cell_1_7 7)))
 (let (($x244 (= cell_1_7 6)))
 (let (($x758 (= cell_1_7 5)))
 (let (($x9025 (= cell_1_7 4)))
 (let (($x4726 (= cell_1_7 3)))
 (let (($x8366 (= cell_1_7 2)))
 (let (($x2271 (= cell_1_7 1)))
 (or $x2271 $x8366 $x4726 $x9025 $x758 $x244 $x8469 $x6762 $x5206)))))))))))
(assert
 (let (($x8810 (= cell_2_7 9)))
 (let (($x1600 (= cell_2_7 8)))
 (let (($x6837 (= cell_2_7 7)))
 (let (($x2157 (= cell_2_7 6)))
 (let (($x1941 (= cell_2_7 5)))
 (let (($x8326 (= cell_2_7 4)))
 (let (($x2114 (= cell_2_7 3)))
 (let (($x5998 (= cell_2_7 2)))
 (let (($x9382 (= cell_2_7 1)))
 (or $x9382 $x5998 $x2114 $x8326 $x1941 $x2157 $x6837 $x1600 $x8810)))))))))))
(assert
 (let (($x5103 (= cell_3_7 9)))
 (let (($x6493 (= cell_3_7 8)))
 (let (($x10078 (= cell_3_7 7)))
 (let (($x4228 (= cell_3_7 6)))
 (let (($x50 (= cell_3_7 5)))
 (let (($x6024 (= cell_3_7 4)))
 (let (($x3412 (= cell_3_7 3)))
 (let (($x6787 (= cell_3_7 2)))
 (let (($x1112 (= cell_3_7 1)))
 (or $x1112 $x6787 $x3412 $x6024 $x50 $x4228 $x10078 $x6493 $x5103)))))))))))
(assert
 (let (($x7700 (= cell_4_7 9)))
 (let (($x7412 (= cell_4_7 8)))
 (let (($x9665 (= cell_4_7 7)))
 (let (($x3742 (= cell_4_7 6)))
 (let (($x5144 (= cell_4_7 5)))
 (let (($x8145 (= cell_4_7 4)))
 (let (($x1086 (= cell_4_7 3)))
 (let (($x7216 (= cell_4_7 2)))
 (let (($x6883 (= cell_4_7 1)))
 (or $x6883 $x7216 $x1086 $x8145 $x5144 $x3742 $x9665 $x7412 $x7700)))))))))))
(assert
 (let (($x3243 (= cell_5_7 9)))
 (let (($x9646 (= cell_5_7 8)))
 (let (($x3652 (= cell_5_7 7)))
 (let (($x5070 (= cell_5_7 6)))
 (let (($x7231 (= cell_5_7 5)))
 (let (($x4762 (= cell_5_7 4)))
 (let (($x7157 (= cell_5_7 3)))
 (let (($x5137 (= cell_5_7 2)))
 (let (($x2627 (= cell_5_7 1)))
 (or $x2627 $x5137 $x7157 $x4762 $x7231 $x5070 $x3652 $x9646 $x3243)))))))))))
(assert
 (let (($x3602 (= cell_6_7 9)))
 (let (($x1207 (= cell_6_7 8)))
 (let (($x1292 (= cell_6_7 7)))
 (let (($x6183 (= cell_6_7 6)))
 (let (($x6055 (= cell_6_7 5)))
 (let (($x10264 (= cell_6_7 4)))
 (let (($x4960 (= cell_6_7 3)))
 (let (($x3804 (= cell_6_7 2)))
 (let (($x7288 (= cell_6_7 1)))
 (or $x7288 $x3804 $x4960 $x10264 $x6055 $x6183 $x1292 $x1207 $x3602)))))))))))
(assert
 (let (($x7979 (= cell_7_7 1)))
 (or $x7979 (= cell_7_7 2) (= cell_7_7 3) (= cell_7_7 4) (= cell_7_7 5) (= cell_7_7 6) (= cell_7_7 7) (= cell_7_7 8) (= cell_7_7 9))))
(assert
 (let (($x2516 (= cell_8_7 1)))
 (or $x2516 (= cell_8_7 2) (= cell_8_7 3) (= cell_8_7 4) (= cell_8_7 5) (= cell_8_7 6) (= cell_8_7 7) (= cell_8_7 8) (= cell_8_7 9))))
(assert
 (let (($x9289 (= cell_9_7 1)))
 (or $x9289 (= cell_9_7 2) (= cell_9_7 3) (= cell_9_7 4) (= cell_9_7 5) (= cell_9_7 6) (= cell_9_7 7) (= cell_9_7 8) (= cell_9_7 9))))
(assert
 (let (($x245 (= cell_1_8 1)))
 (or $x245 (= cell_1_8 2) (= cell_1_8 3) (= cell_1_8 4) (= cell_1_8 5) (= cell_1_8 6) (= cell_1_8 7) (= cell_1_8 8) (= cell_1_8 9))))
(assert
 (let (($x4586 (= cell_2_8 1)))
 (or $x4586 (= cell_2_8 2) (= cell_2_8 3) (= cell_2_8 4) (= cell_2_8 5) (= cell_2_8 6) (= cell_2_8 7) (= cell_2_8 8) (= cell_2_8 9))))
(assert
 (let (($x1027 (= cell_3_8 1)))
 (or $x1027 (= cell_3_8 2) (= cell_3_8 3) (= cell_3_8 4) (= cell_3_8 5) (= cell_3_8 6) (= cell_3_8 7) (= cell_3_8 8) (= cell_3_8 9))))
(assert
 (let (($x9255 (= cell_4_8 9)))
 (let (($x10108 (= cell_4_8 8)))
 (let (($x2604 (= cell_4_8 7)))
 (let (($x8737 (= cell_4_8 6)))
 (let (($x3962 (= cell_4_8 5)))
 (let (($x9783 (= cell_4_8 4)))
 (let (($x3543 (= cell_4_8 3)))
 (let (($x191 (= cell_4_8 2)))
 (let (($x2950 (= cell_4_8 1)))
 (or $x2950 $x191 $x3543 $x9783 $x3962 $x8737 $x2604 $x10108 $x9255)))))))))))
(assert
 (let (($x773 (= cell_5_8 9)))
 (let (($x5469 (= cell_5_8 8)))
 (let (($x9321 (= cell_5_8 7)))
 (let (($x1919 (= cell_5_8 6)))
 (let (($x9750 (= cell_5_8 5)))
 (let (($x4352 (= cell_5_8 4)))
 (let (($x8568 (= cell_5_8 3)))
 (let (($x10180 (= cell_5_8 2)))
 (let (($x8801 (= cell_5_8 1)))
 (or $x8801 $x10180 $x8568 $x4352 $x9750 $x1919 $x9321 $x5469 $x773)))))))))))
(assert
 (let (($x834 (= cell_6_8 9)))
 (let (($x6724 (= cell_6_8 8)))
 (let (($x9081 (= cell_6_8 7)))
 (let (($x7243 (= cell_6_8 6)))
 (let (($x6726 (= cell_6_8 5)))
 (let (($x8514 (= cell_6_8 4)))
 (let (($x6211 (= cell_6_8 3)))
 (let (($x5330 (= cell_6_8 2)))
 (let (($x8007 (= cell_6_8 1)))
 (or $x8007 $x5330 $x6211 $x8514 $x6726 $x7243 $x9081 $x6724 $x834)))))))))))
(assert
 (let (($x3560 (= cell_7_8 1)))
 (or $x3560 (= cell_7_8 2) (= cell_7_8 3) (= cell_7_8 4) (= cell_7_8 5) (= cell_7_8 6) (= cell_7_8 7) (= cell_7_8 8) (= cell_7_8 9))))
(assert
 (let (($x7480 (= cell_8_8 1)))
 (or $x7480 (= cell_8_8 2) (= cell_8_8 3) (= cell_8_8 4) (= cell_8_8 5) (= cell_8_8 6) (= cell_8_8 7) (= cell_8_8 8) (= cell_8_8 9))))
(assert
 (let (($x9547 (= cell_9_8 1)))
 (or $x9547 (= cell_9_8 2) (= cell_9_8 3) (= cell_9_8 4) (= cell_9_8 5) (= cell_9_8 6) (= cell_9_8 7) (= cell_9_8 8) (= cell_9_8 9))))
(assert
 (let (($x6135 (= cell_1_9 9)))
 (let (($x7319 (= cell_1_9 8)))
 (let (($x5095 (= cell_1_9 7)))
 (let (($x7569 (= cell_1_9 6)))
 (let (($x3822 (= cell_1_9 5)))
 (let (($x8310 (= cell_1_9 4)))
 (let (($x10161 (= cell_1_9 3)))
 (let (($x6206 (= cell_1_9 2)))
 (let (($x4272 (= cell_1_9 1)))
 (or $x4272 $x6206 $x10161 $x8310 $x3822 $x7569 $x5095 $x7319 $x6135)))))))))))
(assert
 (let (($x2550 (= cell_2_9 9)))
 (let (($x7676 (= cell_2_9 8)))
 (let (($x3913 (= cell_2_9 7)))
 (let (($x9101 (= cell_2_9 6)))
 (let (($x6353 (= cell_2_9 5)))
 (let (($x6945 (= cell_2_9 4)))
 (let (($x4044 (= cell_2_9 3)))
 (let (($x6875 (= cell_2_9 2)))
 (let (($x2767 (= cell_2_9 1)))
 (or $x2767 $x6875 $x4044 $x6945 $x6353 $x9101 $x3913 $x7676 $x2550)))))))))))
(assert
 (let (($x5425 (= cell_3_9 9)))
 (let (($x5101 (= cell_3_9 8)))
 (let (($x5523 (= cell_3_9 7)))
 (let (($x3812 (= cell_3_9 6)))
 (let (($x6104 (= cell_3_9 5)))
 (let (($x10082 (= cell_3_9 4)))
 (let (($x5546 (= cell_3_9 3)))
 (let (($x6488 (= cell_3_9 2)))
 (let (($x10102 (= cell_3_9 1)))
 (or $x10102 $x6488 $x5546 $x10082 $x6104 $x3812 $x5523 $x5101 $x5425)))))))))))
(assert
 (let (($x3672 (= cell_4_9 9)))
 (let (($x346 (= cell_4_9 8)))
 (let (($x4486 (= cell_4_9 7)))
 (let (($x3896 (= cell_4_9 6)))
 (let (($x4870 (= cell_4_9 5)))
 (let (($x2964 (= cell_4_9 4)))
 (let (($x66 (= cell_4_9 3)))
 (let (($x1655 (= cell_4_9 2)))
 (let (($x2663 (= cell_4_9 1)))
 (or $x2663 $x1655 $x66 $x2964 $x4870 $x3896 $x4486 $x346 $x3672)))))))))))
(assert
 (let (($x211 (= cell_5_9 9)))
 (let (($x2598 (= cell_5_9 8)))
 (let (($x6918 (= cell_5_9 7)))
 (let (($x8708 (= cell_5_9 6)))
 (let (($x1467 (= cell_5_9 5)))
 (let (($x8305 (= cell_5_9 4)))
 (let (($x9374 (= cell_5_9 3)))
 (let (($x790 (= cell_5_9 2)))
 (let (($x1008 (= cell_5_9 1)))
 (or $x1008 $x790 $x9374 $x8305 $x1467 $x8708 $x6918 $x2598 $x211)))))))))))
(assert
 (let (($x5862 (= cell_6_9 1)))
 (or $x5862 (= cell_6_9 2) (= cell_6_9 3) (= cell_6_9 4) (= cell_6_9 5) (= cell_6_9 6) (= cell_6_9 7) (= cell_6_9 8) (= cell_6_9 9))))
(assert
 (let (($x794 (= cell_7_9 1)))
 (or $x794 (= cell_7_9 2) (= cell_7_9 3) (= cell_7_9 4) (= cell_7_9 5) (= cell_7_9 6) (= cell_7_9 7) (= cell_7_9 8) (= cell_7_9 9))))
(assert
 (let (($x6757 (= cell_8_9 1)))
 (or $x6757 (= cell_8_9 2) (= cell_8_9 3) (= cell_8_9 4) (= cell_8_9 5) (= cell_8_9 6) (= cell_8_9 7) (= cell_8_9 8) (= cell_8_9 9))))
(assert
 (let (($x8496 (= cell_9_9 1)))
 (or $x8496 (= cell_9_9 2) (= cell_9_9 3) (= cell_9_9 4) (= cell_9_9 5) (= cell_9_9 6) (= cell_9_9 7) (= cell_9_9 8) (= cell_9_9 9))))
(assert
 (and (distinct cell_1_1 cell_1_2 cell_1_3 cell_1_4 cell_1_5 cell_1_6 cell_1_7 cell_1_8 cell_1_9) true))
(assert
 (and (distinct cell_2_1 cell_2_2 cell_2_3 cell_2_4 cell_2_5 cell_2_6 cell_2_7 cell_2_8 cell_2_9) true))
(assert
 (and (distinct cell_3_1 cell_3_2 cell_3_3 cell_3_4 cell_3_5 cell_3_6 cell_3_7 cell_3_8 cell_3_9) true))
(assert
 (and (distinct cell_4_1 cell_4_2 cell_4_3 cell_4_4 cell_4_5 cell_4_6 cell_4_7 cell_4_8 cell_4_9) true))
(assert
 (and (distinct cell_5_1 cell_5_2 cell_5_3 cell_5_4 cell_5_5 cell_5_6 cell_5_7 cell_5_8 cell_5_9) true))
(assert
 (and (distinct cell_6_1 cell_6_2 cell_6_3 cell_6_4 cell_6_5 cell_6_6 cell_6_7 cell_6_8 cell_6_9) true))
(assert
 (and (distinct cell_7_1 cell_7_2 cell_7_3 cell_7_4 cell_7_5 cell_7_6 cell_7_7 cell_7_8 cell_7_9) true))
(assert
 (and (distinct cell_8_1 cell_8_2 cell_8_3 cell_8_4 cell_8_5 cell_8_6 cell_8_7 cell_8_8 cell_8_9) true))
(assert
 (and (distinct cell_9_1 cell_9_2 cell_9_3 cell_9_4 cell_9_5 cell_9_6 cell_9_7 cell_9_8 cell_9_9) true))
(assert
 (and (distinct cell_1_1 cell_2_1 cell_3_1 cell_4_1 cell_5_1 cell_6_1 cell_7_1 cell_8_1 cell_9_1) true))
(assert
 (and (distinct cell_1_2 cell_2_2 cell_3_2 cell_4_2 cell_5_2 cell_6_2 cell_7_2 cell_8_2 cell_9_2) true))
(assert
 (and (distinct cell_1_3 cell_2_3 cell_3_3 cell_4_3 cell_5_3 cell_6_3 cell_7_3 cell_8_3 cell_9_3) true))
(assert
 (and (distinct cell_1_4 cell_2_4 cell_3_4 cell_4_4 cell_5_4 cell_6_4 cell_7_4 cell_8_4 cell_9_4) true))
(assert
 (and (distinct cell_1_5 cell_2_5 cell_3_5 cell_4_5 cell_5_5 cell_6_5 cell_7_5 cell_8_5 cell_9_5) true))
(assert
 (and (distinct cell_1_6 cell_2_6 cell_3_6 cell_4_6 cell_5_6 cell_6_6 cell_7_6 cell_8_6 cell_9_6) true))
(assert
 (and (distinct cell_1_7 cell_2_7 cell_3_7 cell_4_7 cell_5_7 cell_6_7 cell_7_7 cell_8_7 cell_9_7) true))
(assert
 (and (distinct cell_1_8 cell_2_8 cell_3_8 cell_4_8 cell_5_8 cell_6_8 cell_7_8 cell_8_8 cell_9_8) true))
(assert
 (and (distinct cell_1_9 cell_2_9 cell_3_9 cell_4_9 cell_5_9 cell_6_9 cell_7_9 cell_8_9 cell_9_9) true))
(assert
 (and (distinct cell_1_1 cell_1_2 cell_1_3 cell_2_1 cell_2_2 cell_2_3 cell_3_1 cell_3_2 cell_3_3) true))
(assert
 (and (distinct cell_1_4 cell_1_5 cell_1_6 cell_2_4 cell_2_5 cell_2_6 cell_3_4 cell_3_5 cell_3_6) true))
(assert
 (and (distinct cell_1_7 cell_1_8 cell_1_9 cell_2_7 cell_2_8 cell_2_9 cell_3_7 cell_3_8 cell_3_9) true))
(assert
 (and (distinct cell_4_1 cell_4_2 cell_4_3 cell_5_1 cell_5_2 cell_5_3 cell_6_1 cell_6_2 cell_6_3) true))
(assert
 (and (distinct cell_4_4 cell_4_5 cell_4_6 cell_5_4 cell_5_5 cell_5_6 cell_6_4 cell_6_5 cell_6_6) true))
(assert
 (and (distinct cell_4_7 cell_4_8 cell_4_9 cell_5_7 cell_5_8 cell_5_9 cell_6_7 cell_6_8 cell_6_9) true))
(assert
 (and (distinct cell_7_1 cell_7_2 cell_7_3 cell_8_1 cell_8_2 cell_8_3 cell_9_1 cell_9_2 cell_9_3) true))
(assert
 (and (distinct cell_7_4 cell_7_5 cell_7_6 cell_8_4 cell_8_5 cell_8_6 cell_9_4 cell_9_5 cell_9_6) true))
(assert
 (and (distinct cell_7_7 cell_7_8 cell_7_9 cell_8_7 cell_8_8 cell_8_9 cell_9_7 cell_9_8 cell_9_9) true))
(assert
 (let (($x9090 (and (distinct cell_5_9 cell_6_8 cell_7_7 cell_8_6) true)))
 (let (($x10067 (and (distinct cell_2_9 cell_3_8 cell_4_7 cell_5_6 cell_6_5 cell_7_4 cell_8_3 cell_9_2) true)))
 (let (($x2489 (and (distinct cell_1_8 cell_2_7 cell_3_6 cell_4_5 cell_5_4 cell_6_3 cell_7_2 cell_8_1) true)))
 (let (($x6672 (and (distinct cell_1_5 cell_2_4 cell_3_3 cell_4_2) true)))
 (let (($x8263 (and (distinct cell_5_1 cell_6_2 cell_7_3 cell_8_4) true)))
 (let (($x5488 (and (distinct cell_2_1 cell_3_2 cell_4_3 cell_5_4 cell_6_5 cell_7_6 cell_8_7 cell_9_8) true)))
 (let (($x6655 (and (distinct cell_1_2 cell_2_3 cell_3_4 cell_4_5 cell_5_6 cell_6_7 cell_7_8 cell_8_9) true)))
 (let (($x3903 (and (distinct cell_1_5 cell_2_6 cell_3_7 cell_4_8) true)))
 (and $x3903 $x6655 $x5488 $x8263 $x6672 $x2489 $x10067 $x9090))))))))))
(assert
 (= cell_9_6 1))
(check-sat)
